nLocations = 14;
nCities = 23;
nTypes = 3;

p = [12 19 22 17 5 15 17 30 16 39 19 4 24 33 7 13 11 6 35 6 23 24 33];
posCities = [[9 12] [16 10] [12 9] [7 8] [4 8] [13 16] [0 6] [4 13] [3 3] [8 15] [6 9] [17 16] [3 8] [18 18] [2 9] [0 0] [9 11] [4 9] [0 12] [1 2] [18 12] [14 10] [7 4]];
posLocations = [[3 10] [13 15] [15 8] [12 17] [9 16] [15 3] [5 10] [0 0] [9 6] [8 5] [16 6] [15 0] [15 16] [8 0]];

d_city = [7 11 19];
cap = [23 41 114];
cost = [28 32 36];

d_center = 6.0;
